18
13
4 17 8 1 14 10 11 15 9 7 5 16 12 3 2 13
13 9 11 12 8 16 3 17 0 5
17 0 10 13
11 2 6 3
14 15 0 8
1 12 2 11 0 15 10 6 3 5 8 14 9
1 0 4 12 2 6 7 15 8 13 17 11 9 14 16 5 3
17 8 1 9 0 12 16 14 7 4
6 16 12 5 3 10 1 4 11 14 13 15 17 9
3 17 14
0 14 16 12 9 4 2 13 8 17 7 10 6
12 16 0 15
2 6 4 5 13 1 14 16 8 12 7 11 0 17
